\ This file has been generated by DOcplex
\ ENCODING=ISO-8859-1
\Problem name: Market Sharing Problem

Minimize
 obj: s_plus_0 + s_plus_1 + s_minus_0 + s_minus_1
Subject To
 demand_constraint_0: 24 x_0 + 3 x_1 + 56 x_2 + 72 x_3 + 21 x_5 + 19 x_6
                      + 74 x_7 + 41 x_8 + 10 x_9 + s_plus_0 - s_minus_0 = 160
 demand_constraint_1: 21 x_0 + 38 x_1 + 96 x_2 + 20 x_3 + 44 x_4 + 93 x_5
                      + 39 x_6 + 14 x_7 + 26 x_8 + 81 x_9 + s_plus_1 - s_minus_1
                       = 236

Bounds
 0 <= x_0 <= 1
 0 <= x_1 <= 1
 0 <= x_2 <= 1
 0 <= x_3 <= 1
 0 <= x_4 <= 1
 0 <= x_5 <= 1
 0 <= x_6 <= 1
 0 <= x_7 <= 1
 0 <= x_8 <= 1
 0 <= x_9 <= 1
       s_plus_0 <= 320
       s_plus_1 <= 472
       s_minus_0 <= 320
       s_minus_1 <= 472

Binaries
 x_0 x_1 x_2 x_3 x_4 x_5 x_6 x_7 x_8 x_9

Generals
 s_plus_0 s_plus_1 s_minus_0 s_minus_1
End
